NAME: I4783-n26-k4
COMMENT : (Fake et al, No of trucks: 4, Optimal value: )
TYPE : CVRP
DIMENSION : 26
EDGE_WEIGHT_TYPE : EUC_2D
CAPACITY : 18
NODE_COORD_SECTION
1 918 158
2 879 885
3 479 902
4 560 970
5 559 642
6 777 937
7 597 471
8 264 538
9 828 363
10 345 852
11 517 239
12 699 568
13 44 71
14 119 899
15 320 478
16 852 909
17 459 909
18 342 307
19 940 60
20 573 397
21 922 74
22 125 543
23 497 294
24 978 811
25 208 254
26 220 562
DEMAND_SECTION
1 0
2 3
3 2
4 2
5 1
6 2
7 3
8 1
9 2
10 2
11 1
12 3
13 1
14 2
15 4
16 3
17 3
18 3
19 4
20 4
21 3
22 2
23 4
24 4
25 2
26 4
DEPOT_SECTION
 1
 -1
 EOF 